1000
[204,205,221,231,232,262,271,281,312,323,365,383,407,422,433,441,442,456,458,462,474,488,490,500,522,523,534,553,557,566,576,582,593,595,620,622,660,665,698,699,704,713,725,732,751,768,789]
[1,1,1,1,1,1,1,1,1,1,1,1,1,1,1,1,1,1,1,1,2,1,1,1,1,1,1,1,1,1,1,1,1,1,1,1,1,2,1,1,1,1,2,1,1,1,1]
